NAME          COPTPROB
OBJSENSE
  MIN
ROWS
 N  __OBJ___
 L  C109    
 L  C138    
 L  C144    
 L  C156    
 L  C183    
COLUMNS
    MARKER    'MARKER'                 'INTORG'
    x7        __OBJ___  84
    x7        C138      -1
    x7        C144      -1
    x22       __OBJ___  848
    x22       C109      -1
    x22       C156      -1
    x293      __OBJ___  298
    x293      C183      -1
    x330      __OBJ___  98
    x330      C138      -1
    x330      C156      -1
    x362      __OBJ___  364
    x362      C144      -1
    x362      C183      -1
    x395      __OBJ___  785
    x395      C109      -1
    x395      C183      -1
    MARKER    'MARKER'                 'INTEND'
RHS
    RHS       __OBJ___  -29711
    RHS       C109      -1
    RHS       C138      -1
    RHS       C144      -1
    RHS       C156      -1
    RHS       C183      -1
BOUNDS
 UP BOUND     x7        1
 UP BOUND     x22       1
 UP BOUND     x293      1
 UP BOUND     x330      1
 UP BOUND     x362      1
 UP BOUND     x395      1
ENDATA
